321 5
10 10 10 10 10 

0 0 0 0 0 0 3 2 14 46 
0 0 0 0 0 0 1 3 
3 0 0 1 0 0 2 9 4 
3 0 0 2 0 0 1 5 
5 0 0 2 0 0 2 7 6 
7 0 0 6 0 0 2 12 8 
6 0 0 2 0 0 3 12 10 83 
5 0 0 2 0 0 1 10 
5 0 0 3 0 0 1 10 
7 0 0 1 0 0 1 11 
3 0 0 2 0 0 1 13 
4 0 0 4 0 0 1 13 
0 0 0 0 0 0 2 78 90 
0 0 0 0 0 0 2 15 20 
2 0 0 1 1 1 1 16 
7 0 0 5 4 3 1 17 
2 0 0 4 2 2 1 18 
1 0 0 5 2 1 1 19 
5 0 0 3 1 5 2 25 21 
10 0 0 2 1 1 1 21 
2 0 0 2 5 3 1 22 
9 0 0 3 7 3 1 23 
4 0 0 2 2 5 4 28 27 24 144 
7 0 0 2 3 1 2 30 26 
10 0 0 4 1 3 1 26 
10 0 0 2 1 2 3 33 32 29 
9 0 0 1 2 2 2 32 29 
1 0 0 3 4 4 2 32 29 
2 0 0 3 2 3 1 31 
4 0 0 2 1 4 1 31 
3 0 0 4 2 2 1 34 
5 0 0 3 4 4 1 34 
3 0 0 3 1 1 1 34 
2 0 0 2 4 1 1 35 
3 0 0 2 4 3 1 36 
6 0 0 1 4 4 2 40 37 
1 0 0 1 1 4 1 38 
3 0 0 4 3 3 1 39 
2 0 0 3 2 3 1 41 
8 0 0 2 2 1 1 41 
6 0 0 2 2 1 1 42 
1 0 0 2 1 3 1 43 
2 0 0 1 2 1 1 44 
3 0 0 1 4 1 1 45 
0 0 0 0 0 0 1 160 
0 0 0 0 0 0 2 47 76 
7 0 0 1 1 1 1 48 
6 0 0 2 2 4 1 49 
6 0 0 4 1 4 1 50 
8 0 0 2 1 1 1 51 
10 0 0 3 4 3 2 75 52 
2 0 0 2 5 2 1 53 
9 0 0 3 1 2 3 74 73 54 
7 0 0 1 2 1 3 72 71 55 
10 0 0 1 3 1 2 65 56 
9 0 0 2 4 3 1 57 
3 0 0 1 3 3 2 58 87 
1 0 0 2 1 1 1 59 
2 0 0 2 1 2 2 70 60 
8 0 0 3 6 1 1 61 
6 0 0 3 2 2 1 62 
8 0 0 2 5 4 1 63 
9 0 0 2 1 3 1 64 
3 0 0 4 3 2 1 66 
7 0 0 2 3 3 1 66 
5 0 0 4 3 3 1 67 
3 0 0 3 5 2 1 68 
1 0 0 3 4 3 1 69 
10 0 0 4 2 4 1 77 
3 0 0 2 1 3 1 77 
10 0 0 4 2 3 1 77 
2 0 0 1 1 4 1 77 
3 0 0 4 2 3 1 77 
10 0 0 2 2 2 1 77 
2 0 0 3 1 3 1 77 
6 0 0 3 3 2 1 77 
0 0 0 0 0 0 1 160 
0 0 0 0 0 0 1 79 
5 0 0 0 1 0 1 80 
2 0 0 0 3 0 1 81 
1 0 0 0 3 0 3 85 84 82 
9 0 0 0 1 0 1 83 
10 0 0 0 3 0 3 88 86 301 
8 0 0 0 2 0 2 88 86 
10 0 0 0 4 0 1 86 
3 0 0 0 2 0 1 87 
10 0 0 0 4 0 1 89 
3 0 0 0 2 0 1 89 
0 0 0 0 0 0 4 112 124 136 148 
0 0 0 0 0 0 1 91 
1 0 0 1 1 0 2 102 92 
5 0 0 2 3 0 1 93 
2 0 0 1 3 0 2 101 94 
5 0 0 3 2 0 1 95 
10 0 0 2 2 0 2 105 96 
6 0 0 2 3 0 1 97 
9 0 0 4 1 0 1 98 
6 0 0 2 5 0 2 110 99 
6 0 0 4 3 0 1 100 
2 0 0 1 3 0 2 109 103 
5 0 0 2 2 0 2 107 105 
5 0 0 1 4 0 2 109 106 
1 0 0 3 4 0 1 104 
2 0 0 1 3 0 1 106 
8 0 0 7 2 0 2 110 108 
6 0 0 4 2 0 1 107 
10 0 0 1 1 0 1 108 
8 0 0 1 3 0 1 111 
8 0 0 2 1 0 1 111 
4 0 0 6 2 0 1 111 
0 0 0 0 0 0 1 160 
0 0 0 0 0 0 2 113 114 
8 0 0 0 1 0 1 115 
2 0 0 0 3 0 2 118 117 
5 0 0 0 1 0 1 116 
1 0 0 0 3 0 2 122 118 
4 0 0 0 3 0 2 122 119 
5 0 0 0 5 0 1 119 
3 0 0 0 3 0 1 120 
7 0 0 0 1 0 1 121 
6 0 0 0 1 0 1 123 
7 0 0 0 4 0 1 123 
0 0 0 0 0 0 1 160 
0 0 0 0 0 0 2 125 127 
5 0 0 0 1 0 2 130 126 
7 0 0 0 4 0 1 128 
1 0 0 0 3 0 2 134 130 
2 0 0 0 3 0 1 129 
8 0 0 0 2 0 2 134 131 
6 0 0 0 3 0 1 131 
7 0 0 0 2 0 1 132 
8 0 0 0 3 0 1 133 
3 0 0 0 2 0 1 135 
8 0 0 0 2 0 1 135 
0 0 0 0 0 0 1 160 
0 0 0 0 0 0 2 137 138 
10 0 0 1 0 0 2 141 139 
1 0 0 2 0 0 2 142 141 
3 0 0 6 0 0 1 140 
5 0 0 1 0 0 2 146 142 
6 0 0 2 0 0 2 146 143 
8 0 0 4 0 0 1 143 
9 0 0 1 0 0 1 144 
10 0 0 2 0 0 1 145 
4 0 0 4 0 0 1 147 
9 0 0 2 0 0 1 147 
0 0 0 0 0 0 1 160 
0 0 0 0 0 0 2 149 158 
8 1 0 0 0 0 1 150 
2 4 0 0 0 0 3 157 156 151 
6 2 0 0 0 0 1 152 
2 5 0 0 0 0 1 153 
6 1 0 0 0 0 1 154 
2 3 0 0 0 0 1 155 
10 2 0 0 0 0 1 159 
7 3 0 0 0 0 1 159 
5 2 0 0 0 0 1 159 
8 2 0 0 0 0 1 159 
0 0 0 0 0 0 1 160 
0 0 0 0 0 0 5 161 183 195 217 239 
0 0 0 0 0 0 2 162 168 
3 1 1 0 0 0 1 163 
6 2 2 0 0 0 1 164 
4 1 1 0 0 0 1 165 
7 3 3 0 0 0 2 170 166 
6 2 1 0 0 0 1 167 
5 3 3 0 0 0 2 176 169 
7 1 1 0 0 0 2 176 169 
3 3 4 0 0 0 1 171 
9 3 1 0 0 0 1 171 
10 2 5 0 0 0 1 172 
4 5 2 0 0 0 2 177 173 
3 2 4 0 0 0 1 174 
9 2 4 0 0 0 2 181 175 
6 3 3 0 0 0 1 178 
9 2 2 0 0 0 1 178 
1 3 2 0 0 0 2 181 180 
4 1 5 0 0 0 1 179 
2 3 3 0 0 0 1 180 
6 3 1 0 0 0 1 182 
10 5 2 0 0 0 1 182 
0 0 0 0 0 0 1 321 
0 0 0 0 0 0 2 184 189 
4 0 0 1 0 0 2 193 185 
5 0 0 2 0 0 1 186 
10 0 0 1 0 0 1 187 
5 0 0 5 0 0 2 192 188 
5 0 0 3 0 0 1 190 
7 0 0 3 0 0 1 190 
3 0 0 3 0 0 1 191 
3 0 0 4 0 0 1 194 
10 0 0 1 0 0 1 194 
9 0 0 2 0 0 1 194 
0 0 0 0 0 0 5 261 273 285 297 309 
0 0 0 0 0 0 2 196 201 
2 0 0 1 1 0 1 197 
9 0 0 2 1 0 3 215 214 198 
5 0 0 3 1 0 2 203 199 
4 0 0 4 4 0 1 200 
3 0 0 4 2 0 1 202 
2 0 0 2 3 0 1 203 
2 0 0 1 4 0 1 204 
5 0 0 2 3 0 1 204 
10 0 0 3 1 0 1 205 
8 0 0 1 3 0 1 206 
7 0 0 2 2 0 1 207 
6 0 0 2 2 0 2 213 208 
5 0 0 2 5 0 1 209 
2 0 0 4 4 0 1 210 
2 0 0 1 4 0 1 211 
5 0 0 3 1 0 1 212 
3 0 0 4 3 0 1 216 
7 0 0 2 1 0 1 216 
9 0 0 4 1 0 1 216 
1 0 0 3 4 0 1 216 
0 0 0 0 0 0 1 321 
0 0 0 0 0 0 1 218 
7 0 0 0 1 1 2 222 219 
8 0 0 0 4 3 1 220 
5 0 0 0 3 2 1 221 
6 0 0 0 3 1 2 227 223 
1 0 0 0 2 5 2 227 224 
5 0 0 0 4 2 1 224 
10 0 0 0 2 1 2 230 225 
3 0 0 0 3 2 1 226 
1 0 0 0 2 3 1 228 
3 0 0 0 2 3 2 235 230 
6 0 0 0 4 2 1 229 
10 0 0 0 3 3 3 235 234 231 
9 0 0 0 3 2 2 234 231 
7 0 0 0 4 3 1 232 
9 0 0 0 2 5 1 233 
3 0 0 0 1 2 1 236 
4 0 0 0 2 2 1 236 
10 0 0 0 2 3 1 236 
3 0 0 0 2 2 1 237 
10 0 0 0 1 3 1 238 
0 0 0 0 0 0 1 321 
0 0 0 0 0 0 1 240 
4 1 0 1 0 0 2 259 241 
3 2 0 4 0 0 2 258 242 
10 3 0 2 0 0 1 243 
1 3 0 2 0 0 2 257 244 
4 3 0 4 0 0 1 245 
7 2 0 1 0 0 1 246 
9 2 0 3 0 0 2 256 247 
3 3 0 1 0 0 1 248 
10 4 0 4 0 0 2 255 249 
4 2 0 3 0 0 1 250 
5 2 0 1 0 0 1 251 
1 2 0 3 0 0 1 252 
7 2 0 3 0 0 1 253 
9 1 0 1 0 0 1 254 
8 2 0 4 0 0 1 260 
9 2 0 4 0 0 1 260 
5 5 0 4 0 0 1 260 
9 2 0 2 0 0 1 260 
7 3 0 1 0 0 1 260 
9 4 0 2 0 0 1 260 
0 0 0 0 0 0 1 321 
0 0 0 0 0 0 3 262 270 271 
4 1 0 0 0 0 1 263 
8 2 0 0 0 0 2 269 264 
7 4 0 0 0 0 1 265 
5 1 0 0 0 0 1 266 
1 3 0 0 0 0 1 267 
10 2 0 0 0 0 1 268 
9 4 0 0 0 0 1 272 
6 1 0 0 0 0 1 272 
5 2 0 0 0 0 1 272 
9 5 0 0 0 0 1 272 
0 0 0 0 0 0 1 321 
0 0 0 0 0 0 1 274 
8 0 0 1 0 0 2 276 275 
5 0 0 3 0 0 2 282 277 
7 0 0 3 0 0 2 279 278 
6 0 0 4 0 0 1 278 
5 0 0 1 0 0 1 280 
5 0 0 2 0 0 1 280 
8 0 0 1 0 0 1 281 
7 0 0 6 0 0 1 283 
5 0 0 1 0 0 1 283 
7 0 0 3 0 0 1 284 
0 0 0 0 0 0 1 321 
0 0 0 0 0 0 1 286 
8 0 0 0 1 0 1 287 
9 0 0 0 2 0 2 291 288 
9 0 0 0 2 0 2 294 289 
7 0 0 0 4 0 2 293 290 
2 0 0 0 3 0 1 292 
10 0 0 0 3 0 1 292 
8 0 0 0 1 0 1 295 
8 0 0 0 2 0 1 295 
8 0 0 0 5 0 1 295 
10 0 0 0 2 0 1 296 
0 0 0 0 0 0 1 321 
0 0 0 0 0 0 4 298 300 303 305 
5 0 0 0 1 0 1 299 
5 0 0 0 4 0 1 301 
5 0 0 0 4 0 1 301 
9 0 0 0 2 0 1 302 
9 0 0 0 2 0 1 304 
7 0 0 0 3 0 1 304 
7 0 0 0 3 0 1 306 
2 0 0 0 2 0 1 306 
4 0 0 0 3 0 1 307 
2 0 0 0 1 0 1 308 
0 0 0 0 0 0 1 321 
0 0 0 0 0 0 2 310 311 
10 1 0 0 0 0 1 312 
7 3 0 0 0 0 1 312 
8 5 0 0 0 0 3 319 314 313 
8 1 0 0 0 0 1 315 
6 4 0 0 0 0 1 315 
6 2 0 0 0 0 1 316 
3 2 0 0 0 0 1 317 
7 1 0 0 0 0 1 318 
3 4 0 0 0 0 1 320 
9 2 0 0 0 0 1 320 
0 0 0 0 0 0 1 321 
0 0 0 0 0 0 0 
